c Result of efficient AIG-to-CNF conversion using package CNF
p cnf 124 309
2 -88 121 -122 0
-2 88 0
-2 -121 0
-2 122 0
3 118 -123 0
-3 -118 0
-3 123 0
4 117 -123 0
-4 -117 0
-4 123 0
5 123 -6 0
5 -122 -123 25 0
-5 122 -123 0
-5 123 6 0
-5 -123 -25 0
6 81 82 7 -8 0
6 -81 -82 7 -8 0
-6 8 0
-6 -81 82 0
-6 -7 0
-6 81 -82 0
-7 -83 -84 0
-7 83 84 0
7 83 -84 0
7 -83 84 0
8 77 78 9 -10 0
8 -77 -78 9 -10 0
-8 10 0
-8 -77 78 0
-8 -9 0
-8 77 -78 0
-9 -79 -80 0
-9 79 80 0
9 79 -80 0
9 -79 80 0
10 69 74 11 -12 0
10 -69 -74 11 -12 0
-10 12 0
-10 -69 74 0
-10 -11 0
-10 69 -74 0
-11 -75 -76 0
-11 75 76 0
11 75 -76 0
11 -75 76 0
12 65 66 13 -14 0
12 -65 -66 13 -14 0
-12 14 0
-12 -65 66 0
-12 -13 0
-12 65 -66 0
-13 -67 -68 0
-13 67 68 0
13 67 -68 0
13 -67 68 0
14 60 61 15 -16 0
14 -60 -61 15 -16 0
-14 16 0
-14 -60 61 0
-14 -15 0
-14 60 -61 0
-15 -62 -63 0
-15 62 63 0
15 62 -63 0
15 -62 63 0
16 -63 -64 -68 -17 0
-16 17 0
-16 63 0
-16 68 0
-16 64 0
17 68 76 80 -18 0
17 -68 -76 -80 -18 0
-17 -76 80 0
-17 68 -80 0
-17 18 0
-17 -68 76 0
18 -80 -82 19 20 0
-18 -20 0
-18 80 0
-18 82 0
-18 -19 0
19 -70 -73 0
19 -71 -73 0
19 -70 -72 0
19 70 -71 72 0
-19 70 71 0
-19 -70 72 73 0
-19 70 -72 73 0
-20 57 58 59 21 0
20 -21 0
20 -59 0
20 -57 0
20 -58 0
-21 58 70 71 22 0
-21 -58 -70 -71 22 0
21 -70 71 0
21 58 -71 0
21 -22 0
21 -58 70 0
-22 70 72 73 23 0
-22 -70 -72 -73 23 0
22 -72 73 0
22 70 -73 0
22 -23 0
22 -70 72 0
-23 61 66 73 24 0
-23 -61 -66 -73 24 0
23 -66 73 0
23 61 -73 0
23 -24 0
23 -61 66 0
-24 66 74 78 84 0
24 -84 0
24 -78 0
24 -66 0
24 -74 0
-25 87 26 27 50 0
-25 -87 26 27 -50 0
25 -26 0
25 87 -50 0
25 -27 0
25 -87 50 0
26 -102 -105 0
26 -103 -105 0
26 -102 -104 0
26 102 -103 104 0
-26 102 103 0
-26 -102 104 105 0
-26 102 -104 105 0
-27 60 28 29 31 0
-27 -60 28 -29 31 0
27 -31 0
27 -60 29 0
27 -28 0
27 60 -29 0
-28 -90 -118 0
-28 90 118 0
28 90 -118 0
28 -90 118 0
-29 92 30 0
-29 59 -30 0
29 -92 30 0
29 -59 -30 0
30 -57 58 0
-30 57 0
-30 -58 0
-31 62 32 33 35 0
-31 -62 -32 33 35 0
31 -35 0
31 -62 32 0
31 -33 0
31 62 -32 0
32 -94 30 0
32 59 -30 0
-32 -59 -30 0
-32 94 30 0
-33 65 34 0
-33 -65 -34 0
33 -65 34 0
33 65 -34 0
-34 97 30 0
-34 64 -30 0
34 -97 30 0
34 -64 -30 0
-35 67 36 37 41 0
-35 -67 -36 37 41 0
35 -41 0
35 -67 36 0
35 -37 0
35 67 -36 0
36 -99 30 0
36 64 -30 0
-36 -64 -30 0
-36 99 30 0
-37 69 38 0
-37 -69 -38 0
37 -69 38 0
37 69 -38 0
-38 -30 39 0
-38 101 39 0
38 -39 0
38 -101 30 0
39 -30 -40 0
-39 30 0
-39 40 0
-40 -73 0
-40 -70 -72 0
-40 71 0
-40 70 72 0
40 70 -71 -72 73 0
40 -70 -71 72 73 0
-41 75 42 43 45 0
-41 -75 -42 43 45 0
41 -45 0
41 -75 42 0
41 -43 0
41 75 -42 0
42 -107 39 0
42 -30 39 0
-42 -39 0
-42 107 30 0
-43 77 44 0
-43 -77 -44 0
43 -77 44 0
43 77 -44 0
-44 71 -30 0
-44 109 30 0
-44 64 -30 0
44 -109 30 0
44 -64 -71 -30 0
-45 -79 -46 47 0
-45 79 46 47 0
45 -47 0
45 -79 46 0
45 79 -46 0
46 71 -30 0
46 -111 30 0
46 64 -30 0
-46 111 30 0
-46 -64 -71 -30 0
-47 81 -83 48 -49 0
-47 81 83 48 49 0
-47 -81 -83 -48 -49 0
-47 -81 83 -48 49 0
47 -81 48 0
47 81 -48 0
47 83 -49 0
47 -83 49 0
-48 -59 -30 0
-48 113 30 0
48 -113 30 0
48 59 -30 0
49 -115 30 0
49 -59 -30 0
-49 115 30 0
-49 59 -30 0
50 -120 53 0
50 51 -52 53 0
50 -51 52 53 0
-50 -53 0
-50 120 51 52 0
-50 120 -51 -52 0
51 -92 -97 -101 0
51 -97 -101 -119 0
-51 101 0
-51 97 0
-51 92 119 0
-52 99 107 -119 0
-52 94 99 107 0
52 -107 0
52 -99 0
52 -94 119 0
-53 -120 54 0
-53 54 52 56 0
-53 54 -52 -56 0
53 -54 0
53 120 -52 56 0
53 120 52 -56 0
-54 -120 0
-54 -51 -55 0
-54 51 55 0
54 120 -51 55 0
54 120 51 -55 0
55 -109 -115 0
55 -109 -119 0
-55 109 0
-55 115 119 0
-56 111 113 0
-56 111 -119 0
56 -111 0
56 -113 119 0
-124 0
2 0
123 0
57 0
58 0
59 0
60 0
61 0
62 0
63 0
64 0
65 0
66 0
67 0
68 0
69 0
70 0
71 0
72 0
73 0
74 0
75 0
76 0
77 0
78 0
79 0
80 0
81 0
82 0
83 0
84 0
3 0
4 0
85 0
86 0
87 0
5 0
-124 0

